NAME : mini-n8-k2
COMMENT : Pequena instância CVRP para teste rápido >>CRIADA PELOS ALUNOS<<
TYPE : CVRP
DIMENSION : 8
EDGE_WEIGHT_TYPE : EUC_2D
CAPACITY : 40
NODE_COORD_SECTION
1 30 40
2 37 52
3 49 49
4 52 64
5 31 62
6 52 33
7 42 41
8 52 41
DEMAND_SECTION
1 0
2 10
3 7
4 13
5 19
6 6
7 5
8 8
DEPOT_SECTION
1
-1
EOF
